benchmarks/VRPTW/TSPTW/solution/n80w60.003.txt.solution
1 41 53 62 63 68 49 52 79 16 80 13 23 42 30 66 38 6 44 3 4 35 64 45 59 51 25 24 61 9 76 69 74 27 5 14 26 15 40 73 57 17 36 21 19 50 31 67 32 54 47 60 75 43 34 20 72 56 58 71 70 48 29 2 10 8 7 33 37 77 12 55 46 39 28 18 22 65 78 81 11 
651
